p wcnf 188 376 377 
1 -93 137 0 
1 183 -79 0 
1 91 -75 0 
1 163 -46 0 
1 53 -129 0 
1 186 13 0 
1 68 -82 0 
1 116 9 0 
1 51 -90 0 
1 21 -166 0 
1 -110 -21 0 
1 -125 -46 0 
1 144 -18 0 
1 -137 184 0 
1 140 100 0 
1 -187 130 0 
1 -128 -3 0 
1 107 -168 0 
1 171 52 0 
1 -78 146 0 
1 -2 20 0 
1 81 -59 0 
1 130 52 0 
1 9 23 0 
1 41 120 0 
1 -10 -81 0 
1 -124 -145 0 
1 44 106 0 
1 184 131 0 
1 -156 -139 0 
1 -10 -14 0 
1 125 136 0 
1 59 -79 0 
1 -102 145 0 
1 148 -51 0 
1 143 146 0 
1 -104 140 0 
1 91 -123 0 
1 -140 -154 0 
1 -160 122 0 
1 61 -129 0 
1 -183 138 0 
1 -53 -69 0 
1 -132 -115 0 
1 -3 132 0 
1 24 29 0 
1 122 184 0 
1 66 62 0 
1 88 -44 0 
1 -134 -123 0 
1 181 133 0 
1 46 -6 0 
1 -112 173 0 
1 47 -44 0 
1 32 -55 0 
1 -22 151 0 
1 9 -90 0 
1 166 119 0 
1 -47 -22 0 
1 -69 172 0 
1 38 -185 0 
1 149 -135 0 
1 -184 -181 0 
1 -88 8 0 
1 -72 -23 0 
1 -51 162 0 
1 73 83 0 
1 -98 -18 0 
1 -156 27 0 
1 -158 90 0 
1 175 -107 0 
1 -38 -172 0 
1 152 86 0 
1 20 -129 0 
1 -39 31 0 
1 123 -150 0 
1 43 -127 0 
1 136 10 0 
1 -140 101 0 
1 -155 -171 0 
1 73 187 0 
1 -33 169 0 
1 -169 -21 0 
1 -76 27 0 
1 -53 119 0 
1 -64 -78 0 
1 -80 176 0 
1 -25 56 0 
1 130 -121 0 
1 -13 138 0 
1 -2 51 0 
1 -33 -182 0 
1 83 172 0 
1 -136 56 0 
1 138 47 0 
1 73 -15 0 
1 158 -78 0 
1 -161 57 0 
1 45 -74 0 
1 -113 15 0 
1 23 -158 0 
1 44 -34 0 
1 178 -59 0 
1 30 -140 0 
1 106 45 0 
1 5 59 0 
1 80 -56 0 
1 -128 -133 0 
1 43 56 0 
1 60 131 0 
1 148 152 0 
1 -60 69 0 
1 131 96 0 
1 129 -73 0 
1 9 160 0 
1 126 -133 0 
1 -141 -32 0 
1 21 52 0 
1 -96 133 0 
1 94 -78 0 
1 -172 -150 0 
1 -188 37 0 
1 -146 180 0 
1 -20 145 0 
1 91 -45 0 
1 125 88 0 
1 -64 94 0 
1 72 -73 0 
1 -153 168 0 
1 -30 144 0 
1 32 164 0 
1 -69 -64 0 
1 -187 -179 0 
1 -15 -188 0 
1 146 128 0 
1 -149 75 0 
1 10 -182 0 
1 154 11 0 
1 6 -73 0 
1 107 -7 0 
1 70 64 0 
1 121 135 0 
1 34 7 0 
1 -52 145 0 
1 -58 -145 0 
1 31 -119 0 
1 108 -29 0 
1 146 -141 0 
1 108 -78 0 
1 -150 -168 0 
1 -178 -186 0 
1 30 -86 0 
1 188 161 0 
1 106 -48 0 
1 -17 57 0 
1 2 -17 0 
1 164 -31 0 
1 -148 82 0 
1 184 170 0 
1 -44 16 0 
1 78 -51 0 
1 -56 101 0 
1 -73 45 0 
1 63 119 0 
1 -122 -162 0 
1 -11 -62 0 
1 -120 -13 0 
1 -117 43 0 
1 -27 -128 0 
1 88 124 0 
1 -107 -29 0 
1 -80 14 0 
1 -44 7 0 
1 -76 111 0 
1 114 92 0 
1 187 -4 0 
1 63 -70 0 
1 97 33 0 
1 -106 139 0 
1 -115 20 0 
1 90 -76 0 
1 31 6 0 
1 132 -134 0 
1 -87 -177 0 
1 20 144 0 
1 166 -169 0 
1 -3 38 0 
1 1 -71 0 
1 84 -96 0 
1 -27 148 0 
1 93 -47 0 
1 -50 114 0 
1 109 31 0 
1 14 111 0 
1 -109 -92 0 
1 -83 -90 0 
1 159 -44 0 
1 -98 135 0 
1 -17 -107 0 
1 -59 81 0 
1 -147 -20 0 
1 -100 16 0 
1 184 92 0 
1 81 -77 0 
1 20 -104 0 
1 -32 -118 0 
1 102 -50 0 
1 96 3 0 
1 -76 181 0 
1 143 112 0 
1 -40 -174 0 
1 3 -62 0 
1 -171 121 0 
1 116 -69 0 
1 -84 179 0 
1 44 8 0 
1 -68 143 0 
1 -55 -138 0 
1 -70 -155 0 
1 -72 -147 0 
1 -6 -90 0 
1 -40 12 0 
1 93 118 0 
1 -13 131 0 
1 187 -5 0 
1 61 109 0 
1 128 94 0 
1 -105 82 0 
1 70 84 0 
1 10 142 0 
1 164 -161 0 
1 -51 -157 0 
1 -14 115 0 
1 56 -176 0 
1 -177 10 0 
1 -168 33 0 
1 1 -64 0 
1 -160 -151 0 
1 -88 -165 0 
1 63 -155 0 
1 -111 -162 0 
1 -130 180 0 
1 -35 25 0 
1 178 177 0 
1 160 28 0 
1 74 81 0 
1 178 18 0 
1 156 102 0 
1 -160 -108 0 
1 -178 29 0 
1 69 -118 0 
1 -45 61 0 
1 169 8 0 
1 -108 113 0 
1 159 -23 0 
1 -102 37 0 
1 59 9 0 
1 49 -86 0 
1 80 157 0 
1 -113 -148 0 
1 -24 112 0 
1 182 -149 0 
1 139 -15 0 
1 94 -72 0 
1 66 156 0 
1 -106 -148 0 
1 95 -146 0 
1 181 57 0 
1 111 95 0 
1 162 -72 0 
1 -171 54 0 
1 -28 19 0 
1 154 53 0 
1 -35 23 0 
1 47 75 0 
1 97 -61 0 
1 -90 -132 0 
1 187 -31 0 
1 146 -172 0 
1 -49 -114 0 
1 -163 -62 0 
1 -172 85 0 
1 -38 169 0 
1 115 52 0 
1 131 -151 0 
1 -133 85 0 
1 3 11 0 
1 58 -185 0 
1 123 5 0 
1 -59 -157 0 
1 19 -163 0 
1 4 64 0 
1 -139 68 0 
1 143 52 0 
1 155 108 0 
1 -94 53 0 
1 -172 3 0 
1 -70 147 0 
1 57 153 0 
1 37 56 0 
1 175 101 0 
1 -177 -165 0 
1 -147 -22 0 
1 36 -109 0 
1 -78 104 0 
1 107 40 0 
1 116 -166 0 
1 179 143 0 
1 106 -42 0 
1 174 134 0 
1 182 101 0 
1 -112 -75 0 
1 -160 -35 0 
1 -110 42 0 
1 -123 -34 0 
1 -181 -94 0 
1 -7 -65 0 
1 75 -28 0 
1 97 -174 0 
1 -130 -62 0 
1 -56 -10 0 
1 66 -157 0 
1 173 -107 0 
1 96 -92 0 
1 145 -147 0 
1 -154 127 0 
1 -188 -88 0 
1 -12 -99 0 
1 74 73 0 
1 78 -5 0 
1 92 94 0 
1 -63 50 0 
1 47 82 0 
1 -26 97 0 
1 121 61 0 
1 -86 -118 0 
1 117 -64 0 
1 36 173 0 
1 -96 105 0 
1 -81 -90 0 
1 63 -180 0 
1 -87 111 0 
1 178 17 0 
1 -13 4 0 
1 -141 -138 0 
1 -15 -39 0 
1 74 26 0 
1 22 42 0 
1 74 -147 0 
1 76 5 0 
1 162 100 0 
1 -165 -79 0 
1 -51 -122 0 
1 -140 108 0 
1 -169 -145 0 
1 36 -32 0 
1 68 55 0 
1 161 61 0 
1 -172 -48 0 
1 108 82 0 
1 48 86 0 
1 -145 -17 0 
1 91 -9 0 
1 15 137 0 
1 -91 -28 0 
1 34 52 0 
1 159 63 0 
1 188 96 0 
1 171 91 0 
1 -72 -43 0 
1 119 -114 0 
1 163 8 0 
1 -55 -28 0 
1 -170 17 0 
1 7 3 0 
1 51 138 0 
